TCS_Benchmarks/redos_fix/regexlib2_output_distinct_2598_2597_0_0.smt2
(set-logic QF_S)
(declare-const x String)
(assert (str.in.re x (re.inter  (re.++ (re.*  (re.union  (str.to.re "\u{2d}") (re.union  (str.to.re "\u{2e}") (re.union  (str.to.re "\u{2f}") (re.union  (str.to.re "\u{3f}") (re.union (re.range "\u{30}" "\u{39}") (re.union (re.union (re.range "\u{30}" "\u{39}") (re.range "\u{41}" "\u{5a}") (re.range "\u{5f}" "\u{5f}") (re.range "\u{61}" "\u{7a}") (re.range "\u{aa}" "\u{aa}") (re.range "\u{b5}" "\u{b5}") (re.range "\u{ba}" "\u{ba}") (re.range "\u{c0}" "\u{d6}") (re.range "\u{d8}" "\u{f6}") (re.range "\u{f8}" "\u{ff}")) (re.union  (str.to.re "\u{3a}")  (str.to.re "\u{2b}")))))))) ) (re.*  (re.union  (str.to.re "\u{5c}") (re.union (re.range "\u{30}" "\u{39}") (re.union  (str.to.re "\u{25}") (re.union  (str.to.re "\u{26}") (re.union  (str.to.re "\u{27}") (re.union  (str.to.re "\u{2b}") (re.union  (str.to.re "\u{2c}") (re.union  (str.to.re "\u{2d}") (re.union  (str.to.re "\u{2e}") (re.union  (str.to.re "\u{2f}") (re.union (re.union (re.range "\u{30}" "\u{39}") (re.range "\u{41}" "\u{5a}") (re.range "\u{5f}" "\u{5f}") (re.range "\u{61}" "\u{7a}") (re.range "\u{aa}" "\u{aa}") (re.range "\u{b5}" "\u{b5}") (re.range "\u{ba}" "\u{ba}") (re.range "\u{c0}" "\u{d6}") (re.range "\u{d8}" "\u{f6}") (re.range "\u{f8}" "\u{ff}")) (re.union  (str.to.re "\u{3a}") (re.union  (str.to.re "\u{3b}") (re.union  (str.to.re "\u{7c}") (re.union  (str.to.re "\u{3d}") (re.union  (str.to.re "\u{61}") (re.union  (str.to.re "\u{7e}") (re.union  (str.to.re "\u{3f}") (re.union  (str.to.re "\u{6d}") (re.union  (str.to.re "\u{6f}") (re.union  (str.to.re "\u{70}") (re.union  (str.to.re "\u{71}") (re.union  (str.to.re "\u{74}") (re.union  (str.to.re "\u{75}")  (str.to.re "\u{3b}"))))))))))))))))))))))))) ))  (re.++ (re.*  (re.union  (str.to.re "\u{2d}") (re.union  (str.to.re "\u{2e}") (re.union  (str.to.re "\u{2f}") (re.union  (str.to.re "\u{3f}") (re.union (re.range "\u{30}" "\u{39}") (re.union (re.union (re.range "\u{30}" "\u{39}") (re.range "\u{41}" "\u{5a}") (re.range "\u{5f}" "\u{5f}") (re.range "\u{61}" "\u{7a}") (re.range "\u{aa}" "\u{aa}") (re.range "\u{b5}" "\u{b5}") (re.range "\u{ba}" "\u{ba}") (re.range "\u{c0}" "\u{d6}") (re.range "\u{d8}" "\u{f6}") (re.range "\u{f8}" "\u{ff}")) (re.union  (str.to.re "\u{3a}")  (str.to.re "\u{2b}")))))))) ) (re.++  (re.union  (re.++  (re.union  (re.++  (str.to.re "\u{68}")  (str.to.re "\u{74}"))  (str.to.re "\u{66}")) (re.++  (str.to.re "\u{74}") (re.++  (str.to.re "\u{70}") (re.++ (re.opt  (str.to.re "\u{73}") ) (re.++  (str.to.re "\u{3a}") (re.++  (str.to.re "\u{2f}")  (str.to.re "\u{2f}"))))))) (re.union  (re.++  (re.union (re.range "\u{30}" "\u{39}")  (str.to.re "\u{7c}")) (re.++  (str.to.re "\u{2e}") (re.++  (re.union (re.range "\u{30}" "\u{39}")  (str.to.re "\u{7c}"))  (str.to.re "\u{2e}")))) (re.union  (re.++  (str.to.re "\u{77}") (re.++  (str.to.re "\u{77}") (re.++  (str.to.re "\u{77}")  (str.to.re "\u{2e}")))) (re.union  (re.++  (str.to.re "\u{2e}") (re.++  (str.to.re "\u{74}")  (str.to.re "\u{76}"))) (re.union  (re.++  (str.to.re "\u{2e}") (re.++  (str.to.re "\u{61}")  (str.to.re "\u{63}"))) (re.union  (re.++  (str.to.re "\u{2e}") (re.++  (str.to.re "\u{63}") (re.++  (str.to.re "\u{6f}")  (str.to.re "\u{6d}")))) (re.union  (re.++  (str.to.re "\u{2e}") (re.++  (str.to.re "\u{65}") (re.++  (str.to.re "\u{64}")  (str.to.re "\u{75}")))) (re.union  (re.++  (str.to.re "\u{2e}") (re.++  (str.to.re "\u{67}") (re.++  (str.to.re "\u{6f}")  (str.to.re "\u{76}")))) (re.union  (re.++  (str.to.re "\u{2e}") (re.++  (str.to.re "\u{69}") (re.++  (str.to.re "\u{6e}")  (str.to.re "\u{74}")))) (re.union  (re.++  (str.to.re "\u{2e}") (re.++  (str.to.re "\u{6d}") (re.++  (str.to.re "\u{69}")  (str.to.re "\u{6c}")))) (re.union  (re.++  (str.to.re "\u{2e}") (re.++  (str.to.re "\u{6e}") (re.++  (str.to.re "\u{65}")  (str.to.re "\u{74}")))) (re.union  (re.++  (str.to.re "\u{2e}") (re.++  (str.to.re "\u{6f}") (re.++  (str.to.re "\u{72}")  (str.to.re "\u{67}")))) (re.union  (re.++  (str.to.re "\u{2e}") (re.++  (str.to.re "\u{62}") (re.++  (str.to.re "\u{69}")  (str.to.re "\u{7a}")))) (re.union  (re.++  (str.to.re "\u{2e}") (re.++  (str.to.re "\u{69}") (re.++  (str.to.re "\u{6e}") (re.++  (str.to.re "\u{66}")  (str.to.re "\u{6f}"))))) (re.union  (re.++  (str.to.re "\u{2e}") (re.++  (str.to.re "\u{6e}") (re.++  (str.to.re "\u{61}") (re.++  (str.to.re "\u{6d}")  (str.to.re "\u{65}"))))) (re.union  (re.++  (str.to.re "\u{2e}") (re.++  (str.to.re "\u{70}") (re.++  (str.to.re "\u{72}")  (str.to.re "\u{6f}")))) (re.union  (re.++  (str.to.re "\u{2e}") (re.++  (str.to.re "\u{6d}") (re.++  (str.to.re "\u{75}") (re.++  (str.to.re "\u{73}") (re.++  (str.to.re "\u{65}") (re.++  (str.to.re "\u{75}")  (str.to.re "\u{6d}")))))))  (re.++  (str.to.re "\u{2e}") (re.++  (str.to.re "\u{63}")  (str.to.re "\u{6f}")))))))))))))))))))) (re.*  (re.union  (str.to.re "\u{5c}") (re.union (re.range "\u{30}" "\u{39}") (re.union  (str.to.re "\u{25}") (re.union  (str.to.re "\u{26}") (re.union  (str.to.re "\u{27}") (re.union  (str.to.re "\u{2b}") (re.union  (str.to.re "\u{2c}") (re.union  (str.to.re "\u{2d}") (re.union  (str.to.re "\u{2e}") (re.union  (str.to.re "\u{2f}") (re.union (re.union (re.range "\u{30}" "\u{39}") (re.range "\u{41}" "\u{5a}") (re.range "\u{5f}" "\u{5f}") (re.range "\u{61}" "\u{7a}") (re.range "\u{aa}" "\u{aa}") (re.range "\u{b5}" "\u{b5}") (re.range "\u{ba}" "\u{ba}") (re.range "\u{c0}" "\u{d6}") (re.range "\u{d8}" "\u{f6}") (re.range "\u{f8}" "\u{ff}")) (re.union  (str.to.re "\u{3a}") (re.union  (str.to.re "\u{3b}") (re.union  (str.to.re "\u{7c}") (re.union  (str.to.re "\u{3d}") (re.union  (str.to.re "\u{61}") (re.union  (str.to.re "\u{7e}") (re.union  (str.to.re "\u{3f}") (re.union  (str.to.re "\u{6d}") (re.union  (str.to.re "\u{6f}") (re.union  (str.to.re "\u{70}") (re.union  (str.to.re "\u{71}") (re.union  (str.to.re "\u{74}") (re.union  (str.to.re "\u{75}")  (str.to.re "\u{3b}"))))))))))))))))))))))))) ))) )))
(check-sat)
(get-model)