TCS_Benchmarks/redos_fix/regexlib2_output_distinct_2598_2597_0_0.txt
([\-\.\/\?\d\w\:\+]*)([\\\d\%\&\'\+\,\-\.\/\w\:\;\|\=a\~\?mopqtu;]*)
([\-\.\/\?\d\w\:\+]*)(((ht|f)tp((s)?)\:\/\/|[\d|]\.[\d|]\.|www\.|\.tv|\.ac|\.com|\.edu|\.gov|\.int|\.mil|\.net|\.org|\.biz|\.info|\.name|\.pro|\.museum|\.co))([\\\d\%\&\'\+\,\-\.\/\w\:\;\|\=a\~\?mopqtu;]*)